(set-info :smt-lib-version 2.6)
(set-logic QF_FPBV)
(set-option :produce-models true)
(set-info :source |Random FP created by PyMPF|)
(set-info :license |https://www.gnu.org/licenses/gpl-3.0.html|)
(set-info :category random)
(set-info :status sat)
;; fp.from.sbv(BitVec 128)
(declare-const x (_ BitVec 128))
(assert (bvsle x #b01011100000111001110111001011001000010110010101000011010010101111000110010001110011110010110000000001100111010011111101000110000))
;; x should be 122439194192498602736818113984487619120

(declare-const r Float64)
(assert (= r ((_ to_fp 11 53) RTP x)))
(assert (fp.leq r ((_ to_fp 11 53) #x47D7073B9642CA87)))
(check-sat)
(exit)
